unsat
(define-fun q1 () Bool false)
(define-fun q2 () Bool true)
(define-fun g1 ((x Obj)) Bool (labelOf x tie))
(define-fun g2 ((x Obj)) Bool (labelOf x tie))
(define-fun f ((x1 Obj) (x2 Obj)) Bool (= x1 x2))
(define-fun c1 () Bool false)
(define-fun c2 () Bool true)
(define-fun c3 () Bool false)
(define-fun c4 () Bool false)
26.53user 0.78system 0:27.32elapsed 99%CPU (0avgtext+0avgdata 130224maxresident)k
0inputs+0outputs (0major+29324minor)pagefaults 0swaps
pplwearingties_abc-1.12.23.1d
